100
120
100
100
99
98
97
96
96
96
93
93
92
91
88
87
86
85
84
82
82
79
79
79
77
77
76
72
71
71
70
68
67
66
66
65
64
64
63
63
62
62
62
62
61
60
59
59
58
57
56
55
55
54
51
51
50
50
48
47
47
46
46
46
45
44
41
41
38
37
35
33
32
31
29
29
29
28
28
27
26
25
25
22
19
19
18
18
13
11
10
10
9
6
5
5
4
3
3
2
1
1
